(declare-fun I0_15 () Int)
(declare-fun I0_18 () Int)
(declare-fun I0_2 () Int)
(declare-fun I0_23 () Int)
(declare-fun I0_4 () Int)
(declare-fun I0_6 () Int)
(declare-fun I1_23 () Int)
(declare-fun I2_23 () Int)
(declare-fun PCTEMP_LHS_1 () Int)
(declare-fun PCTEMP_LHS_2 () Int)
(declare-fun PCTEMP_LHS_3 () Int)
(declare-fun PCTEMP_LHS_4 () Int)
(declare-fun PCTEMP_LHS_5 () Int)
(declare-fun PCTEMP_LHS_6 () String)
(declare-fun T0_15 () String)
(declare-fun T0_18 () String)
(declare-fun T0_2 () String)
(declare-fun T0_4 () String)
(declare-fun T0_6 () String)
(declare-fun T1_15 () String)
(declare-fun T1_18 () String)
(declare-fun T1_2 () String)
(declare-fun T1_23 () String)
(declare-fun T1_4 () String)
(declare-fun T1_6 () String)
(declare-fun T2_15 () String)
(declare-fun T2_18 () String)
(declare-fun T2_2 () String)
(declare-fun T2_23 () String)
(declare-fun T2_4 () String)
(declare-fun T2_6 () String)
(declare-fun T3_15 () String)
(declare-fun T3_18 () String)
(declare-fun T3_2 () String)
(declare-fun T3_23 () String)
(declare-fun T3_4 () String)
(declare-fun T3_6 () String)
(declare-fun T4_15 () String)
(declare-fun T4_18 () String)
(declare-fun T4_2 () String)
(declare-fun T4_4 () String)
(declare-fun T4_6 () String)
(declare-fun T5_15 () String)
(declare-fun T5_18 () String)
(declare-fun T5_2 () String)
(declare-fun T5_4 () String)
(declare-fun T5_6 () String)
(declare-fun T_10 () Int)
(declare-fun T_12 () Bool)
(declare-fun T_4 () Bool)
(declare-fun T_5 () Bool)
(declare-fun T_6 () Bool)
(declare-fun T_7 () Bool)
(declare-fun T_8 () Bool)
(declare-fun T_9 () Bool)
(declare-fun T_SELECT_1 () Bool)
(declare-fun T_SELECT_2 () Bool)
(declare-fun T_SELECT_3 () Bool)
(declare-fun T_SELECT_4 () Bool)
(declare-fun T_SELECT_5 () Bool)
(declare-fun T_a () Bool)
(declare-fun T_c () Bool)
(declare-fun T_e () Bool)
(declare-fun T_f () Bool)
(declare-fun var_0xINPUT_12454 () String)

(assert (>= PCTEMP_LHS_5 T_10))
(assert (= T_SELECT_4 (not (= PCTEMP_LHS_4 (- 1)))))
(assert (= T_f (not T_e)))
(assert (= var_0xINPUT_12454 (str.++ T1_23 T2_23)))
(assert (ite T_SELECT_5 (and (= PCTEMP_LHS_5 (+ I0_18 PCTEMP_LHS_4)) (= var_0xINPUT_12454 (str.++ T0_18 T1_18)) (= I0_18 (str.len T4_18)) (= PCTEMP_LHS_4 (str.len T0_18)) (= T1_18 (str.++ T2_18 T3_18)) (= T2_18 (str.++ T4_18 T5_18)) (= T5_18 ";") (not (str.in.re T4_18 (str.to.re ";")))) (and (= PCTEMP_LHS_5 (- 1)) (= var_0xINPUT_12454 (str.++ T0_18 T1_18)) (= PCTEMP_LHS_4 (str.len T0_18)) (not (str.in.re T1_18 (str.to.re ";"))))))
(assert (= I0_23 (str.len PCTEMP_LHS_6)))
(assert (= T_SELECT_5 (not (= PCTEMP_LHS_5 (- 1)))))
(assert (= T_10 (+ PCTEMP_LHS_4 7)))
(assert (ite T_SELECT_4 (and (= PCTEMP_LHS_4 (+ I0_15 0)) (= var_0xINPUT_12454 (str.++ T0_15 T1_15)) (= I0_15 (str.len T4_15)) (= 0 (str.len T0_15)) (= T1_15 (str.++ T2_15 T3_15)) (= T2_15 (str.++ T4_15 T5_15))         (= T5_15 "__utmb=169413169") (not (str.in.re T4_15 (re.++ (str.to.re "_") (re.++ (str.to.re "_") (re.++ (str.to.re "u") (re.++ (str.to.re "t") (re.++ (str.to.re "m") (re.++ (str.to.re "b") (re.++ (str.to.re "=") (re.++ (str.to.re "1") (re.++ (str.to.re "6") (re.++ (str.to.re "9") (re.++ (str.to.re "4") (re.++ (str.to.re "1") (re.++ (str.to.re "3") (re.++ (str.to.re "1") (re.++ (str.to.re "6") (str.to.re         "9"))))))))))))))))))) (and (= PCTEMP_LHS_4 (- 1)) (= var_0xINPUT_12454 (str.++ T0_15 T1_15)) (= 0 (str.len T0_15)) (not (str.in.re T1_15 (re.++ (str.to.re "_") (re.++ (str.to.re "_") (re.++ (str.to.re         "u") (re.++ (str.to.re "t") (re.++ (str.to.re "m") (re.++ (str.to.re "b") (re.++ (str.to.re "=") (re.++ (str.to.re "1") (re.++ (str.to.re "6") (re.++ (str.to.re "9") (re.++ (str.to.re "4") (re.++ (str.to.re "1") (re.++ (str.to.re "3") (re.++ (str.to.re "1") (re.++ (str.to.re "6") (str.to.re "9")))))))))))))))))))))
(assert (= T_e (< PCTEMP_LHS_5 0)))
(assert (= T_c (< (- 1) PCTEMP_LHS_4)))
(assert (= I0_23 (- PCTEMP_LHS_5 T_10)))
(assert (= T_12 (= "-" PCTEMP_LHS_6)))
(assert T_12)
(assert T_f)
(assert T_c)
(assert T_12)
(check-sat)
